
        $ From http://www.csplib.org/Problems/prob009/data/helmut.pdf
        $ Problem number 177
        $ Sequence length : 25
        language ESSENCE' 1.0
        letting sizemaster be 550
        letting sizes be sequence(1,11,16,23,24,27,29,36,41,43,44,47,59,70,71,80,99,103,111,116,128,156,167,227,323)
        